n = 20
Q1 = [0 21 0 0 34 0 0 42 0 0 0 0 33 26 0 11 0 36 0 0; 0 0 39 30 0 0 0 28 0 0 42 0 0 0 25 27 27 0 25 26; 0 0 0 0 11 24 18 22 0 39 0 0 0 45 0 18 34 5 0 0; 0 0 0 0 34 0 0 0 0 16 0 0 0 35 19 0 0 43 48 6; 0 0 0 0 0 49 0 0 0 0 34 0 0 0 0 0 20 0 17 0; 0 0 0 0 0 0 0 45 12 49 34 6 0 0 28 0 0 22 23 0; 0 0 0 0 0 0 0 46 0 0 28 0 13 22 0 0 0 0 0 47; 0 0 0 0 0 0 0 0 0 10 13 0 18 32 21 0 21 40 44 0; 0 0 0 0 0 0 0 0 0 0 0 0 39 0 0 26 0 0 0 23; 0 0 0 0 0 0 0 0 0 0 44 0 33 0 0 22 0 11 0 21; 0 0 0 0 0 0 0 0 0 0 0 22 35 28 0 0 0 0 39 0; 0 0 0 0 0 0 0 0 0 0 0 0 35 0 29 0 0 42 0 0; 0 0 0 0 0 0 0 0 0 0 0 0 0 0 19 0 0 7 0 0; 0 0 0 0 0 0 0 0 0 0 0 0 0 0 0 29 0 15 0 0; 0 0 0 0 0 0 0 0 0 0 0 0 0 0 0 0 0 0 0 0; 0 0 0 0 0 0 0 0 0 0 0 0 0 0 0 0 9 0 18 0; 0 0 0 0 0 0 0 0 0 0 0 0 0 0 0 0 0 0 0 48; 0 0 0 0 0 0 0 0 0 0 0 0 0 0 0 0 0 0 26 18; 0 0 0 0 0 0 0 0 0 0 0 0 0 0 0 0 0 0 0 45; 0 0 0 0 0 0 0 0 0 0 0 0 0 0 0 0 0 0 0 0]
Q2 = [0.0 37.0 0.0 0.0 0.0 0.0 0.0 5.0 0.0 0.0 0.0 0.0 10.0 13.0 0.0 43.0 0.0 11.0 0.0 0.0; 0.0 0.0 3.0 9.0 0.0 0.0 0.0 7.0 0.0 0.0 5.0 0.0 0.0 0.0 1.0 22.0 8.0 0.0 16.0 18.0; 0.0 0.0 0.0 0.0 46.0 40.0 47.0 48.0 0.0 2.0 0.0 0.0 0.0 2.0 0.0 42.0 14.0 45.0 0.0 0.0; 0.0 0.0 0.0 0.0 5.0 0.0 0.0 0.0 0.0 46.0 0.0 0.0 0.0 2.0 35.0 0.0 0.0 5.0 0.0 43.0; 0.0 0.0 0.0 0.0 0.0 0.0 0.0 0.0 0.0 0.0 6.0 0.0 0.0 0.0 0.0 0.0 47.0 0.0 45.0 0.0; 0.0 0.0 0.0 0.0 0.0 0.0 0.0 4.0 37.0 0.0 5.0 47.0 0.0 0.0 1.0 0.0 0.0 42.0 39.0 0.0; 0.0 0.0 0.0 0.0 0.0 0.0 0.0 1.0 0.0 0.0 9.0 0.0 40.0 38.0 0.0 0.0 0.0 0.0 0.0 2.0; 0.0 0.0 0.0 0.0 0.0 0.0 0.0 0.0 0.0 43.0 36.0 0.0 38.0 8.0 44.0 0.0 42.0 2.0 5.0 0.0; 0.0 0.0 0.0 0.0 0.0 0.0 0.0 0.0 0.0 0.0 0.0 0.0 1.0 0.0 0.0 17.0 0.0 0.0 0.0 35.0; 0.0 0.0 0.0 0.0 0.0 0.0 0.0 0.0 0.0 0.0 2.0 0.0 15.0 0.0 0.0 43.0 0.0 42.0 0.0 47.0; 0.0 0.0 0.0 0.0 0.0 0.0 0.0 0.0 0.0 0.0 0.0 34.0 8.0 11.0 0.0 0.0 0.0 0.0 5.0 0.0; 0.0 0.0 0.0 0.0 0.0 0.0 0.0 0.0 0.0 0.0 0.0 0.0 5.0 0.0 5.0 0.0 0.0 5.0 0.0 0.0; 0.0 0.0 0.0 0.0 0.0 0.0 0.0 0.0 0.0 0.0 0.0 0.0 0.0 0.0 32.0 0.0 0.0 48.0 0.0 0.0; 0.0 0.0 0.0 0.0 0.0 0.0 0.0 0.0 0.0 0.0 0.0 0.0 0.0 0.0 0.0 1.0 0.0 43.0 0.0 0.0; 0.0 0.0 0.0 0.0 0.0 0.0 0.0 0.0 0.0 0.0 0.0 0.0 0.0 0.0 0.0 0.0 0.0 0.0 0.0 0.0; 0.0 0.0 0.0 0.0 0.0 0.0 0.0 0.0 0.0 0.0 0.0 0.0 0.0 0.0 0.0 0.0 47.0 0.0 33.0 0.0; 0.0 0.0 0.0 0.0 0.0 0.0 0.0 0.0 0.0 0.0 0.0 0.0 0.0 0.0 0.0 0.0 0.0 0.0 0.0 1.0; 0.0 0.0 0.0 0.0 0.0 0.0 0.0 0.0 0.0 0.0 0.0 0.0 0.0 0.0 0.0 0.0 0.0 0.0 5.0 35.0; 0.0 0.0 0.0 0.0 0.0 0.0 0.0 0.0 0.0 0.0 0.0 0.0 0.0 0.0 0.0 0.0 0.0 0.0 0.0 1.0; 0.0 0.0 0.0 0.0 0.0 0.0 0.0 0.0 0.0 0.0 0.0 0.0 0.0 0.0 0.0 0.0 0.0 0.0 0.0 0.0]
Q3 = [0 3 70 70 41 70 70 23 70 70 70 70 6 17 70 5 70 10 70 70; 0 0 16 28 70 70 70 10 70 70 3 70 70 70 46 11 26 70 23 13; 0 0 0 70 13 6 5 0 70 23 70 70 70 1 70 5 6 2 70 70; 0 0 0 0 14 70 70 70 70 4 70 70 70 23 8 70 70 1 17 11; 0 0 0 0 0 3 70 70 70 70 18 70 70 70 70 70 3 70 7 70; 0 0 0 0 0 0 70 4 7 5 7 16 70 70 66 70 70 3 5 70; 0 0 0 0 0 0 0 0 70 70 2 70 10 0 70 70 70 70 70 7; 0 0 0 0 0 0 0 0 70 1 11 70 12 27 1 70 2 2 1 70; 0 0 0 0 0 0 0 0 0 70 70 70 1 70 70 21 70 70 70 2; 0 0 0 0 0 0 0 0 0 0 14 70 14 70 70 1 70 17 70 2; 0 0 0 0 0 0 0 0 0 0 0 7 23 10 70 70 70 70 18 70; 0 0 0 0 0 0 0 0 0 0 0 0 4 70 70 70 70 20 70 70; 0 0 0 0 0 0 0 0 0 0 0 0 0 70 3 70 70 3 70 70; 0 0 0 0 0 0 0 0 0 0 0 0 0 0 70 47 70 0 70 70; 0 0 0 0 0 0 0 0 0 0 0 0 0 0 0 70 70 70 70 70; 0 0 0 0 0 0 0 0 0 0 0 0 0 0 0 0 5 70 5 70; 0 0 0 0 0 0 0 0 0 0 0 0 0 0 0 0 0 70 70 6; 0 0 0 0 0 0 0 0 0 0 0 0 0 0 0 0 0 0 54 13; 0 0 0 0 0 0 0 0 0 0 0 0 0 0 0 0 0 0 0 14; 0 0 0 0 0 0 0 0 0 0 0 0 0 0 0 0 0 0 0 0]
